/*********************************************
 * OPL 12.10.0.0 Data
 * Author: tt_sina
 * Creation Date: Nov 5, 2021 at 12:43:26 AM
 *********************************************/
n=5;
d=[[0 1 4 6 2]
   [1 0 3 9999 2]
   [4 3 0 5 2]
   [6 9999 5 0 4]
   [2 2 2 4 0]];
   // beine computerhaye
   // faghede emkane vasl
   //shodan, fasele 9999
   // dar nazar gerefte shod
   
   
   